************************************************************************
file with basedata            : mm22_.bas
initial value random generator: 1769051587
************************************************************************
projects                      :  1
jobs (incl. supersource/sink ):  12
horizon                       :  82
RESOURCES
  - renewable                 :  2   R
  - nonrenewable              :  2   N
  - doubly constrained        :  0   D
************************************************************************
PROJECT INFORMATION:
pronr.  #jobs rel.date duedate tardcost  MPM-Time
    1     10      0       18        3       18
************************************************************************
PRECEDENCE RELATIONS:
jobnr.    #modes  #successors   successors
   0        1          3           1   2   3
   1        3          3           7   9  10
   2        3          3           4   6   8
   3        3          1           4
   4        3          1           5
   5        3          2           9  10
   6        3          1          10
   7        3          1           8
   8        3          1          11
   9        3          1          11
  10        3          1          11
  11        1          0        
************************************************************************
REQUESTS/DURATIONS:
jobnr. mode duration  R 1  R 2  R 3  R 4  E(W 1)  E(W 2)  E(W 3)
------------------------------------------------------------------------
  0      1     0       0    0    0    0     0       0       0
  1      1     8       3    0   10    7    24      80      56
  2      1     3       0    5    8    8    15      24      24
  3      1     1       0    9    7    8     9       7       8
  4      1     4       0    9    6    9    36      24      36
  5      1     3       0   10    9    5    30      27      15
  6      1     1       0    8    8    9     8       8       9
  7      1     4       7    0   10    8    28      40      32
  8      1     6       0    6    9    5    36      54      30
  9      1     2       0   10    4    6    20       8      12
 10      1     5       1    0    5    9    10      25      45
 11      1     0       0    0    0    0     0       0       0
************************************************************************
RESOURCEAVAILABILITIES:
  R 1  R 2  R 3
   33   65   64
************************************************************************
RESOURCE LIMITS:
jobnr.  l(R 1)  u(R 1)  l(R 2)  u(R 2)  l(R 3)  u(R 3)
------------------------------------------------------------------------
  0        0       0       0       0       0       0
  1        2       3       5      10       4       7
  2        3       5       4       8       4       8
  3        5       9       4       7       4       8
  4        5       9       3       6       5       9
  5        5      10       5       9       3       5
  6        4       8       4       8       5       9
  7        4       7       5      10       4       8
  8        3       6       5       9       3       5
  9        5      10       2       4       3       6
 10        1       2       3       5       5       9
 11        0       0       0       0       0       0
************************************************************************
SCENARIOS:
------------------------------------------------------------------------
RESOURCE k = 1
s = 1: (0, 20, 17, 7, 22, 25, 5, 19, 23, 15, 7, 0)
s = 2: (0, 17, 17, 8, 31, 38, 7, 22, 37, 17, 8, 0)
s = 3: (0, 15, 29, 6, 25, 24, 14, 30, 33, 18, 13, 0)
s = 4: (0, 30, 17, 9, 34, 48, 10, 36, 54, 23, 12, 0)
s = 5: (0, 22, 20, 12, 31, 17, 8, 34, 43, 17, 8, 0)
s = 6: (0, 16, 13, 9, 26, 50, 7, 31, 47, 24, 7, 0)
s = 7: (0, 26, 14, 6, 36, 18, 9, 45, 54, 19, 8, 0)
s = 8: (0, 27, 15, 12, 39, 38, 11, 26, 32, 28, 7, 0)
s = 9: (0, 17, 23, 13, 36, 28, 6, 36, 34, 25, 12, 0)
s = 10: (0, 30, 16, 8, 34, 22, 8, 20, 27, 19, 8, 0)
s = 11: (0, 26, 16, 8, 36, 23, 6, 33, 33, 36, 8, 0)
s = 12: (0, 25, 10, 12, 51, 24, 12, 37, 29, 14, 9, 0)
s = 13: (0, 20, 12, 8, 30, 32, 8, 20, 47, 16, 14, 0)
s = 14: (0, 16, 14, 9, 26, 36, 7, 42, 40, 14, 6, 0)
s = 15: (0, 25, 10, 14, 29, 28, 10, 24, 34, 28, 9, 0)
s = 16: (0, 41, 17, 11, 44, 30, 8, 18, 48, 24, 10, 0)
s = 17: (0, 30, 16, 7, 39, 28, 9, 36, 34, 24, 10, 0)
s = 18: (0, 14, 15, 7, 45, 37, 7, 37, 19, 17, 8, 0)
s = 19: (0, 30, 22, 7, 24, 44, 11, 33, 29, 38, 15, 0)
s = 20: (0, 16, 19, 9, 27, 28, 8, 34, 34, 19, 9, 0)
s = 21: (0, 17, 19, 9, 27, 32, 8, 41, 31, 31, 14, 0)
s = 22: (0, 28, 11, 8, 35, 45, 10, 30, 52, 30, 9, 0)
s = 23: (0, 26, 14, 7, 40, 46, 8, 26, 29, 36, 12, 0)
s = 24: (0, 21, 11, 13, 34, 29, 6, 36, 37, 20, 12, 0)
s = 25: (0, 24, 18, 6, 29, 32, 6, 26, 32, 11, 16, 0)
s = 26: (0, 25, 12, 7, 33, 43, 14, 18, 30, 30, 9, 0)
s = 27: (0, 23, 18, 9, 36, 32, 11, 34, 38, 14, 9, 0)
s = 28: (0, 18, 12, 6, 31, 29, 6, 28, 39, 19, 13, 0)
s = 29: (0, 18, 12, 11, 41, 40, 9, 41, 37, 16, 16, 0)
s = 30: (0, 33, 23, 12, 45, 28, 9, 31, 20, 19, 15, 0)
s = 31: (0, 24, 13, 11, 27, 31, 6, 29, 40, 26, 13, 0)
s = 32: (0, 27, 11, 12, 25, 36, 12, 46, 47, 17, 10, 0)
s = 33: (0, 24, 13, 7, 45, 36, 9, 44, 49, 21, 11, 0)
s = 34: (0, 20, 14, 9, 33, 49, 8, 19, 49, 13, 17, 0)
s = 35: (0, 19, 17, 10, 27, 42, 7, 37, 37, 24, 8, 0)
s = 36: (0, 27, 14, 8, 39, 25, 6, 29, 27, 22, 8, 0)
s = 37: (0, 19, 10, 14, 27, 40, 10, 29, 38, 20, 12, 0)
s = 38: (0, 18, 11, 14, 30, 25, 12, 43, 24, 30, 13, 0)
s = 39: (0, 21, 14, 14, 51, 42, 8, 48, 31, 14, 12, 0)
s = 40: (0, 30, 13, 9, 29, 27, 7, 31, 46, 24, 9, 0)
s = 41: (0, 16, 26, 12, 42, 25, 8, 29, 30, 19, 10, 0)
s = 42: (0, 25, 24, 13, 45, 29, 13, 36, 24, 18, 14, 0)
s = 43: (0, 34, 22, 9, 53, 41, 5, 22, 24, 18, 9, 0)
s = 44: (0, 25, 13, 16, 33, 31, 12, 37, 55, 28, 9, 0)
s = 45: (0, 18, 18, 9, 23, 27, 7, 15, 27, 19, 7, 0)
s = 46: (0, 17, 14, 6, 40, 27, 7, 26, 43, 24, 10, 0)
s = 47: (0, 14, 10, 7, 38, 30, 10, 36, 32, 19, 6, 0)
s = 48: (0, 25, 15, 8, 29, 30, 14, 21, 52, 22, 7, 0)
s = 49: (0, 20, 22, 14, 53, 36, 10, 19, 37, 38, 11, 0)
s = 50: (0, 22, 13, 9, 51, 26, 5, 31, 42, 18, 7, 0)
s = 51: (0, 19, 12, 6, 34, 37, 7, 19, 56, 22, 8, 0)
s = 52: (0, 46, 25, 13, 55, 40, 9, 21, 30, 23, 7, 0)
s = 53: (0, 19, 14, 10, 30, 42, 9, 19, 21, 16, 12, 0)
s = 54: (0, 41, 14, 10, 36, 35, 8, 38, 37, 34, 12, 0)
s = 55: (0, 18, 16, 9, 32, 37, 11, 35, 43, 20, 12, 0)
s = 56: (0, 38, 16, 12, 42, 18, 7, 28, 37, 19, 8, 0)
s = 57: (0, 18, 22, 6, 50, 34, 11, 29, 38, 28, 9, 0)
s = 58: (0, 19, 22, 7, 38, 38, 9, 20, 38, 33, 11, 0)
s = 59: (0, 23, 11, 7, 52, 22, 8, 37, 52, 14, 6, 0)
s = 60: (0, 15, 12, 9, 53, 26, 7, 28, 27, 28, 13, 0)
s = 61: (0, 22, 17, 10, 33, 45, 7, 35, 50, 14, 6, 0)
s = 62: (0, 24, 12, 8, 36, 16, 7, 34, 32, 29, 16, 0)
s = 63: (0, 26, 12, 7, 33, 18, 12, 30, 32, 12, 12, 0)
s = 64: (0, 18, 21, 7, 39, 25, 11, 27, 44, 16, 12, 0)
s = 65: (0, 30, 13, 17, 33, 24, 6, 25, 30, 26, 7, 0)
s = 66: (0, 17, 27, 9, 25, 32, 8, 37, 33, 12, 11, 0)
s = 67: (0, 28, 14, 7, 27, 24, 8, 32, 31, 18, 17, 0)
s = 68: (0, 27, 16, 16, 41, 40, 11, 46, 37, 13, 9, 0)
s = 69: (0, 35, 23, 12, 23, 32, 13, 37, 35, 21, 11, 0)
s = 70: (0, 20, 15, 16, 29, 37, 9, 31, 34, 23, 8, 0)
s = 71: (0, 37, 23, 10, 41, 32, 12, 21, 25, 22, 6, 0)
s = 72: (0, 25, 16, 5, 41, 20, 13, 29, 44, 17, 17, 0)
s = 73: (0, 20, 14, 6, 31, 28, 9, 41, 25, 22, 15, 0)
s = 74: (0, 39, 21, 7, 45, 29, 12, 35, 27, 25, 13, 0)
s = 75: (0, 36, 20, 10, 31, 22, 11, 31, 57, 16, 8, 0)
s = 76: (0, 23, 18, 8, 24, 27, 8, 29, 37, 19, 14, 0)
s = 77: (0, 26, 18, 5, 24, 30, 5, 41, 56, 20, 7, 0)
s = 78: (0, 16, 17, 12, 22, 35, 11, 25, 49, 28, 13, 0)
s = 79: (0, 25, 20, 9, 27, 40, 11, 27, 24, 15, 11, 0)
s = 80: (0, 27, 15, 11, 34, 37, 6, 29, 46, 15, 10, 0)
s = 81: (0, 17, 15, 10, 39, 20, 6, 23, 56, 12, 7, 0)
s = 82: (0, 26, 9, 6, 21, 33, 9, 19, 59, 16, 8, 0)
s = 83: (0, 40, 23, 14, 45, 40, 10, 34, 45, 17, 10, 0)
s = 84: (0, 19, 14, 8, 43, 18, 10, 24, 47, 31, 10, 0)
s = 85: (0, 25, 12, 7, 47, 27, 8, 21, 32, 16, 8, 0)
s = 86: (0, 27, 17, 8, 31, 47, 9, 20, 20, 19, 10, 0)
s = 87: (0, 32, 10, 11, 40, 46, 11, 19, 35, 27, 11, 0)
s = 88: (0, 28, 12, 7, 44, 36, 7, 40, 32, 20, 17, 0)
s = 89: (0, 19, 18, 9, 56, 31, 12, 22, 36, 17, 10, 0)
s = 90: (0, 16, 20, 8, 30, 30, 9, 27, 31, 14, 6, 0)
s = 91: (0, 28, 15, 9, 35, 51, 11, 34, 21, 18, 8, 0)
s = 92: (0, 32, 14, 9, 42, 28, 8, 21, 23, 17, 10, 0)
s = 93: (0, 28, 20, 7, 61, 47, 8, 41, 26, 15, 9, 0)
s = 94: (0, 27, 15, 7, 31, 31, 9, 18, 34, 29, 8, 0)
s = 95: (0, 19, 18, 10, 23, 43, 8, 50, 56, 18, 15, 0)
s = 96: (0, 14, 15, 11, 36, 31, 7, 35, 38, 18, 7, 0)
s = 97: (0, 38, 15, 9, 29, 41, 10, 32, 42, 11, 9, 0)
s = 98: (0, 36, 21, 7, 40, 19, 12, 25, 40, 15, 11, 0)
s = 99: (0, 31, 13, 6, 45, 21, 5, 26, 33, 24, 8, 0)
s = 100: (0, 39, 10, 8, 29, 26, 9, 19, 35, 28, 12, 0)
s = 101: (0, 22, 17, 10, 41, 18, 9, 20, 45, 11, 8, 0)
s = 102: (0, 24, 15, 10, 40, 23, 6, 37, 31, 19, 10, 0)
s = 103: (0, 30, 10, 10, 39, 20, 8, 25, 67, 11, 8, 0)
s = 104: (0, 23, 24, 10, 39, 39, 7, 21, 30, 23, 9, 0)
s = 105: (0, 34, 21, 10, 46, 22, 5, 29, 38, 19, 14, 0)
s = 106: (0, 19, 17, 8, 34, 19, 8, 23, 31, 20, 6, 0)
s = 107: (0, 15, 13, 8, 25, 34, 8, 31, 53, 16, 12, 0)
s = 108: (0, 17, 14, 8, 47, 25, 8, 33, 30, 24, 15, 0)
s = 109: (0, 25, 13, 15, 39, 24, 12, 16, 29, 19, 8, 0)
s = 110: (0, 13, 11, 8, 26, 33, 10, 30, 22, 16, 9, 0)
s = 111: (0, 18, 12, 14, 31, 45, 13, 30, 36, 25, 6, 0)
s = 112: (0, 27, 13, 9, 35, 28, 8, 18, 20, 17, 10, 0)
s = 113: (0, 30, 16, 6, 35, 20, 11, 19, 45, 13, 16, 0)
s = 114: (0, 20, 12, 14, 47, 36, 11, 25, 32, 17, 14, 0)
s = 115: (0, 29, 10, 12, 36, 23, 5, 31, 48, 16, 7, 0)
s = 116: (0, 29, 17, 7, 38, 38, 5, 30, 43, 18, 16, 0)
s = 117: (0, 23, 10, 8, 27, 17, 6, 20, 58, 26, 18, 0)
s = 118: (0, 32, 18, 9, 26, 56, 9, 20, 50, 24, 8, 0)
s = 119: (0, 24, 14, 6, 30, 45, 15, 32, 38, 22, 10, 0)
s = 120: (0, 28, 13, 7, 21, 39, 12, 31, 34, 19, 7, 0)
s = 121: (0, 18, 11, 7, 48, 29, 8, 21, 38, 24, 6, 0)
s = 122: (0, 16, 14, 8, 28, 28, 11, 39, 24, 14, 14, 0)
s = 123: (0, 36, 14, 7, 33, 30, 8, 26, 48, 20, 10, 0)
s = 124: (0, 17, 15, 11, 43, 23, 8, 22, 29, 25, 9, 0)
s = 125: (0, 21, 17, 12, 30, 41, 7, 15, 41, 28, 9, 0)
s = 126: (0, 17, 11, 10, 51, 24, 10, 32, 45, 17, 7, 0)
s = 127: (0, 21, 8, 10, 35, 29, 6, 37, 45, 29, 7, 0)
s = 128: (0, 20, 13, 12, 27, 24, 8, 32, 49, 24, 7, 0)
s = 129: (0, 18, 12, 10, 43, 39, 8, 44, 30, 15, 15, 0)
s = 130: (0, 43, 22, 11, 45, 28, 12, 31, 30, 16, 8, 0)
s = 131: (0, 26, 11, 7, 38, 19, 8, 18, 29, 23, 10, 0)
s = 132: (0, 21, 16, 12, 43, 33, 11, 20, 28, 22, 9, 0)
s = 133: (0, 32, 13, 9, 39, 33, 9, 25, 37, 15, 9, 0)
s = 134: (0, 17, 17, 11, 36, 35, 12, 38, 23, 13, 8, 0)
s = 135: (0, 19, 18, 11, 49, 19, 7, 23, 36, 15, 7, 0)
s = 136: (0, 20, 12, 11, 42, 34, 6, 46, 28, 26, 12, 0)
s = 137: (0, 14, 18, 10, 22, 40, 6, 20, 24, 20, 7, 0)
s = 138: (0, 22, 11, 7, 44, 50, 7, 22, 27, 20, 8, 0)
s = 139: (0, 21, 13, 13, 36, 31, 9, 32, 65, 20, 8, 0)
s = 140: (0, 19, 16, 7, 43, 21, 12, 26, 37, 19, 13, 0)
s = 141: (0, 25, 12, 9, 38, 39, 12, 38, 34, 17, 13, 0)
s = 142: (0, 45, 13, 11, 26, 21, 8, 33, 52, 28, 8, 0)
s = 143: (0, 25, 12, 13, 48, 32, 8, 20, 25, 24, 13, 0)
s = 144: (0, 30, 14, 7, 39, 39, 8, 39, 29, 28, 15, 0)
s = 145: (0, 28, 11, 10, 25, 20, 10, 19, 27, 32, 10, 0)
s = 146: (0, 18, 27, 16, 40, 27, 10, 16, 27, 24, 13, 0)
s = 147: (0, 29, 12, 13, 56, 27, 9, 48, 44, 22, 13, 0)
s = 148: (0, 33, 21, 8, 27, 23, 8, 30, 26, 22, 6, 0)
s = 149: (0, 21, 16, 10, 38, 32, 7, 39, 56, 28, 8, 0)
s = 150: (0, 23, 17, 6, 49, 30, 13, 27, 31, 13, 8, 0)
s = 151: (0, 22, 21, 9, 36, 21, 10, 21, 32, 18, 8, 0)
s = 152: (0, 17, 11, 9, 35, 31, 5, 31, 29, 19, 12, 0)
s = 153: (0, 29, 11, 11, 29, 39, 9, 37, 34, 20, 9, 0)
s = 154: (0, 26, 15, 11, 28, 22, 9, 31, 26, 15, 9, 0)
s = 155: (0, 26, 12, 12, 38, 32, 8, 33, 48, 15, 15, 0)
s = 156: (0, 37, 15, 7, 44, 34, 10, 39, 54, 15, 13, 0)
s = 157: (0, 40, 14, 6, 24, 31, 5, 25, 28, 21, 18, 0)
s = 158: (0, 25, 12, 9, 33, 42, 6, 25, 24, 40, 11, 0)
s = 159: (0, 24, 10, 9, 45, 25, 9, 31, 43, 29, 10, 0)
s = 160: (0, 22, 15, 7, 32, 27, 10, 30, 37, 24, 8, 0)
s = 161: (0, 19, 12, 8, 43, 24, 8, 31, 54, 19, 11, 0)
s = 162: (0, 20, 9, 8, 38, 42, 10, 20, 49, 32, 11, 0)
s = 163: (0, 32, 21, 9, 34, 27, 7, 31, 21, 13, 10, 0)
s = 164: (0, 28, 20, 7, 37, 30, 10, 25, 20, 12, 8, 0)
s = 165: (0, 23, 14, 6, 49, 28, 13, 21, 37, 12, 9, 0)
s = 166: (0, 20, 22, 6, 23, 31, 5, 24, 31, 33, 11, 0)
s = 167: (0, 22, 17, 6, 54, 37, 8, 27, 38, 12, 9, 0)
s = 168: (0, 20, 15, 12, 43, 33, 5, 20, 40, 11, 9, 0)
s = 169: (0, 24, 10, 10, 65, 34, 7, 53, 52, 11, 8, 0)
s = 170: (0, 15, 11, 8, 51, 28, 9, 17, 49, 13, 7, 0)
s = 171: (0, 25, 18, 14, 24, 21, 7, 31, 33, 32, 9, 0)
s = 172: (0, 27, 12, 6, 30, 22, 9, 21, 37, 21, 7, 0)
s = 173: (0, 19, 20, 8, 53, 25, 8, 33, 39, 13, 14, 0)
s = 174: (0, 36, 23, 9, 28, 34, 7, 24, 46, 23, 7, 0)
s = 175: (0, 19, 26, 6, 48, 22, 6, 25, 35, 27, 14, 0)
s = 176: (0, 40, 23, 10, 31, 23, 12, 22, 26, 32, 15, 0)
s = 177: (0, 29, 16, 10, 35, 38, 9, 31, 61, 15, 11, 0)
s = 178: (0, 32, 22, 10, 59, 32, 9, 25, 25, 19, 8, 0)
s = 179: (0, 21, 13, 14, 25, 41, 13, 22, 38, 16, 9, 0)
s = 180: (0, 17, 10, 15, 39, 42, 10, 34, 28, 13, 12, 0)
s = 181: (0, 25, 9, 8, 34, 31, 5, 44, 50, 17, 12, 0)
s = 182: (0, 18, 16, 12, 34, 43, 6, 27, 47, 36, 12, 0)
s = 183: (0, 28, 27, 7, 20, 43, 9, 23, 48, 27, 13, 0)
s = 184: (0, 25, 17, 10, 41, 40, 9, 28, 30, 18, 10, 0)
s = 185: (0, 20, 15, 6, 21, 28, 8, 25, 42, 24, 9, 0)
s = 186: (0, 26, 23, 10, 60, 47, 10, 19, 30, 28, 8, 0)
s = 187: (0, 34, 11, 15, 20, 24, 10, 23, 31, 14, 7, 0)
s = 188: (0, 40, 15, 9, 36, 30, 6, 30, 32, 29, 7, 0)
s = 189: (0, 23, 15, 10, 32, 22, 7, 23, 37, 14, 7, 0)
s = 190: (0, 38, 16, 9, 39, 38, 8, 24, 26, 19, 8, 0)
s = 191: (0, 39, 18, 6, 40, 29, 8, 31, 37, 14, 11, 0)
s = 192: (0, 22, 9, 10, 37, 27, 8, 19, 43, 16, 11, 0)
s = 193: (0, 25, 20, 7, 58, 21, 8, 27, 53, 23, 11, 0)
s = 194: (0, 18, 12, 9, 25, 25, 7, 28, 24, 34, 13, 0)
s = 195: (0, 22, 16, 6, 52, 45, 9, 18, 27, 23, 8, 0)
s = 196: (0, 21, 12, 13, 27, 27, 6, 22, 53, 25, 8, 0)
s = 197: (0, 37, 16, 15, 41, 34, 7, 21, 23, 29, 7, 0)
s = 198: (0, 18, 10, 8, 36, 18, 13, 28, 41, 24, 11, 0)
s = 199: (0, 21, 10, 13, 26, 53, 6, 33, 39, 14, 10, 0)
s = 200: (0, 27, 15, 9, 41, 21, 9, 18, 42, 16, 12, 0)
------------------------------------------------------------------------
RESOURCE k = 2
s = 1: (0, 65, 28, 5, 15, 23, 5, 28, 35, 6, 17, 0)
s = 2: (0, 55, 28, 7, 21, 34, 7, 32, 55, 7, 20, 0)
s = 3: (0, 48, 45, 5, 17, 21, 14, 43, 49, 7, 32, 0)
s = 4: (0, 100, 27, 7, 23, 44, 10, 51, 80, 9, 30, 0)
s = 5: (0, 74, 32, 9, 21, 15, 8, 49, 64, 7, 20, 0)
s = 6: (0, 52, 21, 7, 18, 45, 7, 44, 71, 10, 17, 0)
s = 7: (0, 85, 22, 5, 24, 16, 9, 64, 81, 8, 19, 0)
s = 8: (0, 90, 24, 9, 26, 34, 11, 38, 48, 11, 17, 0)
s = 9: (0, 55, 36, 10, 24, 25, 6, 51, 51, 10, 28, 0)
s = 10: (0, 98, 25, 6, 23, 20, 8, 28, 41, 8, 18, 0)
s = 11: (0, 85, 25, 6, 24, 21, 6, 47, 49, 15, 19, 0)
s = 12: (0, 83, 15, 10, 34, 22, 12, 52, 44, 6, 21, 0)
s = 13: (0, 65, 19, 7, 20, 29, 8, 28, 71, 7, 33, 0)
s = 14: (0, 51, 22, 7, 17, 32, 7, 59, 59, 6, 15, 0)
s = 15: (0, 82, 16, 11, 20, 25, 10, 34, 50, 11, 21, 0)
s = 16: (0, 136, 28, 9, 29, 27, 8, 26, 72, 10, 24, 0)
s = 17: (0, 98, 26, 5, 26, 25, 9, 51, 51, 10, 24, 0)
s = 18: (0, 47, 24, 5, 30, 34, 7, 52, 29, 7, 19, 0)
s = 19: (0, 100, 34, 6, 16, 39, 11, 47, 43, 16, 38, 0)
s = 20: (0, 54, 30, 7, 18, 25, 8, 48, 51, 8, 23, 0)
s = 21: (0, 57, 30, 7, 18, 29, 8, 58, 46, 13, 34, 0)
s = 22: (0, 93, 17, 7, 24, 41, 10, 42, 78, 12, 23, 0)
s = 23: (0, 85, 23, 5, 27, 42, 8, 36, 43, 15, 30, 0)
s = 24: (0, 70, 18, 11, 23, 26, 6, 52, 55, 8, 28, 0)
s = 25: (0, 77, 28, 5, 20, 29, 6, 37, 47, 5, 39, 0)
s = 26: (0, 81, 20, 5, 22, 39, 14, 26, 45, 12, 22, 0)
s = 27: (0, 76, 28, 7, 24, 29, 11, 49, 57, 6, 23, 0)
s = 28: (0, 58, 18, 5, 21, 26, 6, 39, 58, 8, 33, 0)
s = 29: (0, 57, 19, 8, 28, 36, 9, 59, 55, 7, 38, 0)
s = 30: (0, 107, 36, 10, 30, 25, 9, 44, 29, 8, 37, 0)
s = 31: (0, 79, 20, 9, 18, 28, 6, 41, 60, 11, 31, 0)
s = 32: (0, 90, 17, 9, 17, 32, 12, 66, 71, 7, 24, 0)
s = 33: (0, 80, 20, 6, 30, 32, 9, 62, 73, 9, 27, 0)
s = 34: (0, 65, 22, 7, 22, 44, 8, 27, 73, 5, 42, 0)
s = 35: (0, 62, 28, 8, 18, 38, 7, 52, 55, 10, 19, 0)
s = 36: (0, 88, 22, 6, 26, 22, 6, 41, 41, 9, 20, 0)
s = 37: (0, 62, 16, 11, 18, 36, 10, 41, 57, 8, 28, 0)
s = 38: (0, 60, 17, 11, 20, 23, 12, 61, 36, 12, 31, 0)
s = 39: (0, 69, 23, 11, 34, 38, 8, 69, 46, 6, 30, 0)
s = 40: (0, 98, 21, 7, 19, 25, 7, 45, 68, 10, 21, 0)
s = 41: (0, 53, 41, 9, 28, 22, 8, 42, 45, 8, 24, 0)
s = 42: (0, 81, 38, 10, 30, 26, 13, 51, 36, 7, 34, 0)
s = 43: (0, 111, 34, 7, 35, 37, 5, 32, 36, 7, 21, 0)
s = 44: (0, 81, 21, 12, 22, 28, 12, 53, 83, 12, 22, 0)
s = 45: (0, 58, 29, 7, 16, 24, 7, 22, 41, 8, 17, 0)
s = 46: (0, 56, 22, 5, 27, 24, 7, 37, 64, 10, 25, 0)
s = 47: (0, 46, 15, 6, 26, 27, 10, 51, 47, 8, 15, 0)
s = 48: (0, 83, 23, 6, 20, 27, 14, 30, 78, 9, 18, 0)
s = 49: (0, 65, 36, 11, 35, 33, 10, 27, 56, 16, 27, 0)
s = 50: (0, 72, 21, 7, 34, 23, 5, 44, 63, 8, 17, 0)
s = 51: (0, 63, 19, 5, 23, 33, 7, 27, 84, 9, 19, 0)
s = 52: (0, 151, 40, 10, 37, 36, 9, 29, 44, 9, 17, 0)
s = 53: (0, 63, 22, 8, 20, 38, 9, 27, 32, 7, 29, 0)
s = 54: (0, 137, 23, 8, 24, 32, 8, 54, 56, 14, 30, 0)
s = 55: (0, 60, 26, 7, 22, 34, 11, 49, 65, 8, 30, 0)
s = 56: (0, 125, 26, 10, 28, 16, 7, 40, 55, 8, 20, 0)
s = 57: (0, 58, 35, 5, 34, 30, 11, 41, 57, 12, 22, 0)
s = 58: (0, 63, 35, 6, 26, 35, 9, 29, 57, 14, 26, 0)
s = 59: (0, 74, 17, 6, 35, 20, 8, 53, 78, 6, 15, 0)
s = 60: (0, 48, 19, 7, 36, 23, 7, 40, 40, 11, 32, 0)
s = 61: (0, 72, 27, 8, 22, 40, 7, 50, 74, 6, 15, 0)
s = 62: (0, 78, 19, 6, 24, 15, 7, 48, 48, 12, 39, 0)
s = 63: (0, 85, 19, 6, 22, 16, 12, 43, 47, 5, 30, 0)
s = 64: (0, 60, 33, 6, 26, 22, 11, 39, 65, 7, 28, 0)
s = 65: (0, 99, 21, 13, 22, 22, 6, 35, 45, 11, 16, 0)
s = 66: (0, 56, 43, 7, 17, 29, 8, 53, 49, 5, 27, 0)
s = 67: (0, 91, 21, 6, 18, 21, 8, 45, 47, 7, 41, 0)
s = 68: (0, 88, 25, 13, 27, 36, 11, 65, 55, 6, 22, 0)
s = 69: (0, 114, 36, 9, 16, 29, 13, 52, 52, 9, 27, 0)
s = 70: (0, 66, 23, 12, 19, 33, 9, 44, 51, 9, 20, 0)
s = 71: (0, 124, 37, 8, 28, 29, 12, 29, 37, 9, 15, 0)
s = 72: (0, 83, 25, 4, 28, 18, 13, 41, 65, 7, 42, 0)
s = 73: (0, 64, 22, 5, 21, 26, 9, 58, 37, 9, 38, 0)
s = 74: (0, 128, 33, 5, 30, 26, 12, 50, 40, 10, 31, 0)
s = 75: (0, 118, 31, 8, 21, 20, 11, 44, 86, 7, 19, 0)
s = 76: (0, 74, 28, 7, 16, 24, 8, 41, 56, 8, 35, 0)
s = 77: (0, 87, 29, 4, 16, 27, 5, 59, 84, 8, 16, 0)
s = 78: (0, 51, 27, 9, 15, 31, 11, 35, 73, 12, 33, 0)
s = 79: (0, 83, 32, 7, 18, 36, 11, 38, 35, 6, 27, 0)
s = 80: (0, 88, 24, 8, 23, 34, 6, 42, 69, 6, 25, 0)
s = 81: (0, 57, 24, 8, 26, 18, 6, 33, 83, 5, 16, 0)
s = 82: (0, 86, 14, 5, 14, 30, 9, 27, 88, 7, 20, 0)
s = 83: (0, 133, 36, 11, 30, 36, 10, 48, 67, 7, 24, 0)
s = 84: (0, 61, 22, 6, 29, 16, 10, 34, 71, 13, 24, 0)
s = 85: (0, 81, 19, 6, 31, 24, 8, 30, 47, 7, 19, 0)
s = 86: (0, 90, 27, 6, 21, 42, 9, 28, 30, 8, 24, 0)
s = 87: (0, 104, 16, 8, 27, 41, 11, 27, 52, 11, 27, 0)
s = 88: (0, 92, 19, 6, 30, 32, 7, 57, 47, 8, 43, 0)
s = 89: (0, 63, 29, 7, 38, 28, 12, 31, 54, 7, 25, 0)
s = 90: (0, 51, 31, 6, 20, 27, 9, 39, 46, 6, 15, 0)
s = 91: (0, 92, 23, 7, 23, 46, 11, 48, 32, 8, 19, 0)
s = 92: (0, 104, 22, 7, 28, 25, 8, 29, 35, 7, 23, 0)
s = 93: (0, 93, 31, 5, 41, 42, 8, 58, 39, 6, 22, 0)
s = 94: (0, 87, 24, 6, 21, 28, 9, 26, 50, 12, 20, 0)
s = 95: (0, 61, 29, 8, 16, 38, 8, 72, 84, 7, 36, 0)
s = 96: (0, 46, 24, 8, 24, 28, 7, 50, 57, 8, 16, 0)
s = 97: (0, 125, 24, 7, 19, 37, 10, 46, 63, 5, 23, 0)
s = 98: (0, 119, 33, 6, 27, 17, 12, 36, 60, 6, 26, 0)
s = 99: (0, 102, 21, 5, 30, 19, 5, 37, 49, 10, 20, 0)
s = 100: (0, 130, 15, 6, 19, 23, 9, 27, 53, 12, 30, 0)
s = 101: (0, 71, 26, 8, 28, 16, 9, 28, 67, 5, 19, 0)
s = 102: (0, 79, 24, 8, 27, 21, 6, 52, 47, 8, 25, 0)
s = 103: (0, 99, 16, 8, 26, 18, 8, 36, 100, 5, 20, 0)
s = 104: (0, 74, 38, 8, 26, 35, 7, 29, 44, 10, 23, 0)
s = 105: (0, 111, 33, 8, 31, 20, 5, 42, 57, 8, 35, 0)
s = 106: (0, 61, 27, 6, 23, 17, 8, 33, 46, 8, 15, 0)
s = 107: (0, 48, 20, 6, 17, 31, 8, 44, 79, 7, 29, 0)
s = 108: (0, 57, 22, 6, 32, 23, 8, 46, 45, 10, 38, 0)
s = 109: (0, 81, 21, 12, 26, 21, 12, 23, 43, 8, 18, 0)
s = 110: (0, 42, 17, 6, 18, 30, 10, 43, 32, 7, 21, 0)
s = 111: (0, 58, 18, 11, 21, 40, 13, 43, 54, 10, 14, 0)
s = 112: (0, 89, 20, 7, 24, 25, 8, 26, 30, 7, 23, 0)
s = 113: (0, 98, 25, 5, 24, 18, 11, 28, 68, 6, 39, 0)
s = 114: (0, 66, 19, 11, 32, 32, 11, 35, 47, 7, 34, 0)
s = 115: (0, 95, 16, 10, 24, 21, 5, 44, 72, 7, 16, 0)
s = 116: (0, 94, 26, 5, 25, 34, 5, 42, 65, 8, 39, 0)
s = 117: (0, 74, 16, 7, 18, 16, 6, 28, 87, 11, 44, 0)
s = 118: (0, 105, 29, 7, 17, 50, 9, 29, 75, 10, 19, 0)
s = 119: (0, 79, 22, 5, 20, 40, 15, 45, 56, 9, 23, 0)
s = 120: (0, 92, 20, 6, 14, 35, 12, 43, 50, 8, 17, 0)
s = 121: (0, 59, 17, 5, 32, 26, 8, 30, 57, 10, 15, 0)
s = 122: (0, 52, 22, 6, 19, 26, 11, 55, 36, 6, 34, 0)
s = 123: (0, 120, 22, 6, 22, 27, 8, 37, 72, 8, 23, 0)
s = 124: (0, 55, 23, 9, 29, 21, 8, 32, 43, 10, 22, 0)
s = 125: (0, 69, 27, 9, 20, 37, 7, 22, 61, 11, 22, 0)
s = 126: (0, 54, 18, 8, 34, 21, 10, 46, 67, 7, 17, 0)
s = 127: (0, 68, 13, 8, 23, 26, 6, 52, 67, 12, 16, 0)
s = 128: (0, 65, 20, 10, 18, 21, 8, 45, 73, 10, 16, 0)
s = 129: (0, 59, 19, 8, 29, 35, 8, 63, 45, 6, 38, 0)
s = 130: (0, 141, 35, 9, 30, 25, 12, 44, 45, 7, 19, 0)
s = 131: (0, 87, 17, 5, 26, 18, 8, 25, 43, 9, 25, 0)
s = 132: (0, 68, 25, 9, 29, 30, 11, 28, 42, 9, 21, 0)
s = 133: (0, 106, 21, 7, 26, 29, 9, 35, 55, 6, 21, 0)
s = 134: (0, 55, 27, 9, 24, 31, 12, 53, 34, 5, 20, 0)
s = 135: (0, 61, 29, 8, 33, 17, 7, 33, 54, 6, 17, 0)
s = 136: (0, 65, 19, 9, 28, 31, 6, 65, 42, 11, 30, 0)
s = 137: (0, 46, 29, 8, 15, 36, 6, 28, 36, 8, 17, 0)
s = 138: (0, 71, 17, 6, 30, 45, 7, 31, 40, 8, 19, 0)
s = 139: (0, 70, 21, 10, 24, 28, 9, 45, 98, 8, 20, 0)
s = 140: (0, 62, 25, 6, 29, 19, 12, 37, 55, 8, 32, 0)
s = 141: (0, 82, 20, 7, 25, 35, 12, 55, 51, 7, 31, 0)
s = 142: (0, 147, 20, 9, 17, 19, 8, 47, 77, 11, 18, 0)
s = 143: (0, 83, 19, 10, 32, 28, 8, 29, 37, 10, 31, 0)
s = 144: (0, 97, 22, 6, 26, 35, 8, 55, 43, 11, 37, 0)
s = 145: (0, 93, 17, 8, 17, 18, 10, 27, 41, 13, 25, 0)
s = 146: (0, 57, 43, 13, 27, 24, 10, 23, 40, 10, 31, 0)
s = 147: (0, 96, 19, 10, 38, 25, 9, 69, 66, 9, 33, 0)
s = 148: (0, 107, 33, 6, 18, 21, 8, 43, 38, 9, 15, 0)
s = 149: (0, 69, 25, 8, 25, 29, 7, 56, 84, 11, 19, 0)
s = 150: (0, 75, 27, 5, 33, 27, 13, 38, 47, 5, 19, 0)
s = 151: (0, 71, 34, 7, 24, 19, 10, 30, 48, 7, 19, 0)
s = 152: (0, 56, 18, 7, 24, 28, 5, 44, 43, 8, 28, 0)
s = 153: (0, 96, 18, 9, 20, 35, 9, 53, 51, 8, 23, 0)
s = 154: (0, 87, 23, 8, 19, 20, 9, 44, 39, 6, 21, 0)
s = 155: (0, 86, 20, 9, 26, 29, 8, 46, 71, 6, 36, 0)
s = 156: (0, 121, 23, 6, 29, 30, 10, 56, 80, 6, 31, 0)
s = 157: (0, 131, 23, 5, 16, 28, 5, 35, 42, 9, 43, 0)
s = 158: (0, 81, 18, 7, 22, 38, 6, 36, 35, 16, 26, 0)
s = 159: (0, 78, 15, 7, 30, 22, 9, 43, 65, 12, 23, 0)
s = 160: (0, 72, 24, 6, 22, 24, 10, 43, 55, 10, 20, 0)
s = 161: (0, 61, 18, 7, 29, 22, 8, 45, 81, 8, 28, 0)
s = 162: (0, 66, 15, 6, 25, 38, 10, 28, 73, 13, 26, 0)
s = 163: (0, 105, 34, 7, 23, 24, 7, 44, 31, 6, 25, 0)
s = 164: (0, 93, 32, 5, 25, 27, 10, 35, 30, 5, 20, 0)
s = 165: (0, 76, 22, 5, 33, 25, 13, 30, 55, 5, 23, 0)
s = 166: (0, 65, 36, 5, 16, 28, 5, 34, 46, 14, 28, 0)
s = 167: (0, 74, 27, 5, 36, 34, 8, 38, 57, 5, 23, 0)
s = 168: (0, 65, 24, 9, 29, 30, 5, 28, 60, 5, 23, 0)
s = 169: (0, 78, 16, 8, 44, 30, 7, 75, 77, 5, 20, 0)
s = 170: (0, 48, 17, 6, 34, 25, 9, 25, 73, 6, 17, 0)
s = 171: (0, 82, 29, 11, 16, 19, 7, 44, 49, 13, 23, 0)
s = 172: (0, 88, 18, 5, 20, 19, 9, 30, 55, 9, 16, 0)
s = 173: (0, 64, 31, 6, 36, 23, 8, 47, 59, 5, 33, 0)
s = 174: (0, 117, 37, 7, 19, 31, 7, 35, 69, 10, 16, 0)
s = 175: (0, 61, 41, 5, 32, 20, 6, 36, 52, 11, 35, 0)
s = 176: (0, 132, 37, 8, 21, 21, 12, 31, 39, 13, 36, 0)
s = 177: (0, 94, 26, 8, 24, 34, 9, 45, 91, 6, 27, 0)
s = 178: (0, 105, 34, 8, 40, 28, 9, 35, 37, 8, 19, 0)
s = 179: (0, 70, 21, 11, 17, 37, 13, 31, 57, 7, 22, 0)
s = 180: (0, 57, 15, 12, 26, 37, 10, 48, 42, 6, 30, 0)
s = 181: (0, 81, 14, 6, 23, 28, 5, 62, 75, 7, 30, 0)
s = 182: (0, 59, 25, 9, 23, 39, 6, 38, 70, 15, 30, 0)
s = 183: (0, 91, 42, 6, 14, 39, 9, 33, 71, 11, 32, 0)
s = 184: (0, 81, 26, 8, 28, 36, 9, 40, 45, 7, 23, 0)
s = 185: (0, 67, 23, 5, 14, 25, 8, 36, 63, 10, 22, 0)
s = 186: (0, 84, 36, 8, 40, 43, 10, 27, 44, 11, 20, 0)
s = 187: (0, 111, 17, 12, 13, 22, 10, 33, 46, 6, 16, 0)
s = 188: (0, 131, 24, 7, 24, 27, 6, 42, 48, 12, 17, 0)
s = 189: (0, 76, 23, 8, 21, 20, 7, 32, 55, 6, 17, 0)
s = 190: (0, 125, 26, 7, 26, 34, 8, 34, 38, 8, 20, 0)
s = 191: (0, 130, 29, 5, 27, 26, 8, 44, 55, 6, 26, 0)
s = 192: (0, 72, 14, 8, 25, 24, 8, 27, 65, 7, 26, 0)
s = 193: (0, 81, 31, 6, 39, 19, 8, 38, 79, 10, 27, 0)
s = 194: (0, 60, 18, 7, 17, 22, 7, 40, 36, 14, 32, 0)
s = 195: (0, 73, 25, 5, 35, 40, 9, 26, 40, 10, 20, 0)
s = 196: (0, 68, 20, 10, 18, 25, 6, 32, 80, 10, 18, 0)
s = 197: (0, 121, 26, 12, 28, 31, 7, 29, 35, 12, 16, 0)
s = 198: (0, 58, 16, 7, 24, 16, 13, 40, 61, 10, 26, 0)
s = 199: (0, 69, 15, 10, 18, 47, 6, 46, 58, 6, 23, 0)
s = 200: (0, 90, 24, 7, 27, 19, 9, 26, 62, 7, 28, 0)
------------------------------------------------------------------------
RESOURCE k = 3
s = 1: (0, 46, 28, 6, 22, 13, 5, 22, 19, 9, 30, 0)
s = 2: (0, 39, 28, 7, 31, 19, 8, 25, 31, 11, 36, 0)
s = 3: (0, 34, 45, 5, 25, 12, 16, 34, 27, 11, 57, 0)
s = 4: (0, 70, 27, 8, 34, 24, 12, 41, 45, 14, 53, 0)
s = 5: (0, 52, 32, 11, 31, 9, 9, 39, 36, 11, 35, 0)
s = 6: (0, 37, 21, 8, 26, 25, 8, 35, 40, 14, 31, 0)
s = 7: (0, 60, 22, 6, 36, 9, 10, 51, 45, 11, 34, 0)
s = 8: (0, 63, 24, 11, 39, 19, 12, 30, 27, 17, 30, 0)
s = 9: (0, 39, 36, 11, 36, 14, 7, 41, 29, 15, 50, 0)
s = 10: (0, 68, 25, 7, 34, 11, 9, 23, 23, 11, 32, 0)
s = 11: (0, 60, 25, 7, 36, 12, 6, 37, 28, 22, 33, 0)
s = 12: (0, 58, 15, 11, 51, 12, 14, 42, 24, 9, 38, 0)
s = 13: (0, 45, 19, 8, 30, 16, 9, 23, 40, 10, 60, 0)
s = 14: (0, 36, 22, 8, 26, 18, 8, 48, 33, 9, 26, 0)
s = 15: (0, 58, 16, 13, 29, 14, 11, 27, 28, 17, 37, 0)
s = 16: (0, 95, 28, 10, 44, 15, 8, 21, 40, 14, 42, 0)
s = 17: (0, 69, 26, 6, 39, 14, 10, 41, 29, 15, 43, 0)
s = 18: (0, 33, 24, 6, 45, 19, 8, 42, 16, 10, 34, 0)
s = 19: (0, 70, 34, 6, 24, 22, 12, 38, 24, 23, 68, 0)
s = 20: (0, 38, 30, 8, 27, 14, 8, 39, 29, 11, 40, 0)
s = 21: (0, 40, 30, 8, 27, 16, 9, 46, 26, 19, 60, 0)
s = 22: (0, 65, 17, 7, 35, 23, 11, 34, 44, 18, 41, 0)
s = 23: (0, 59, 23, 6, 40, 23, 9, 29, 24, 22, 54, 0)
s = 24: (0, 49, 18, 12, 34, 15, 7, 41, 31, 12, 51, 0)
s = 25: (0, 54, 28, 5, 29, 16, 6, 30, 27, 7, 70, 0)
s = 26: (0, 57, 20, 6, 33, 22, 16, 21, 25, 18, 38, 0)
s = 27: (0, 54, 28, 8, 36, 16, 13, 39, 32, 9, 41, 0)
s = 28: (0, 41, 18, 6, 31, 15, 7, 32, 33, 11, 59, 0)
s = 29: (0, 40, 19, 9, 41, 20, 10, 47, 31, 10, 69, 0)
s = 30: (0, 75, 36, 11, 45, 14, 10, 36, 16, 11, 66, 0)
s = 31: (0, 55, 20, 10, 27, 16, 7, 33, 34, 16, 55, 0)
s = 32: (0, 63, 17, 10, 25, 18, 13, 53, 40, 10, 43, 0)
s = 33: (0, 56, 20, 6, 45, 18, 10, 50, 41, 13, 48, 0)
s = 34: (0, 46, 22, 8, 33, 25, 9, 22, 41, 8, 74, 0)
s = 35: (0, 44, 28, 9, 27, 21, 8, 42, 31, 15, 34, 0)
s = 36: (0, 61, 22, 7, 39, 13, 7, 33, 23, 13, 35, 0)
s = 37: (0, 44, 16, 13, 27, 20, 12, 33, 32, 12, 50, 0)
s = 38: (0, 42, 17, 12, 30, 13, 14, 49, 20, 18, 55, 0)
s = 39: (0, 48, 23, 12, 51, 21, 9, 55, 26, 8, 54, 0)
s = 40: (0, 69, 21, 8, 29, 14, 8, 36, 38, 15, 38, 0)
s = 41: (0, 38, 41, 10, 42, 13, 9, 33, 25, 11, 44, 0)
s = 42: (0, 57, 38, 11, 45, 15, 14, 41, 20, 11, 60, 0)
s = 43: (0, 78, 34, 8, 53, 21, 6, 26, 20, 11, 37, 0)
s = 44: (0, 57, 21, 14, 33, 16, 13, 42, 46, 17, 40, 0)
s = 45: (0, 41, 29, 8, 23, 14, 7, 18, 23, 12, 30, 0)
s = 46: (0, 39, 22, 6, 40, 14, 8, 30, 36, 15, 44, 0)
s = 47: (0, 32, 15, 7, 38, 15, 11, 41, 26, 11, 26, 0)
s = 48: (0, 58, 23, 7, 29, 15, 15, 24, 44, 13, 31, 0)
s = 49: (0, 46, 36, 12, 53, 18, 11, 22, 31, 23, 48, 0)
s = 50: (0, 51, 21, 8, 51, 13, 6, 35, 35, 11, 30, 0)
s = 51: (0, 44, 19, 5, 34, 19, 8, 22, 47, 13, 35, 0)
s = 52: (0, 106, 40, 12, 55, 20, 10, 23, 25, 14, 30, 0)
s = 53: (0, 44, 22, 9, 30, 21, 10, 21, 18, 10, 52, 0)
s = 54: (0, 96, 23, 9, 36, 18, 9, 44, 31, 21, 53, 0)
s = 55: (0, 42, 26, 8, 32, 19, 12, 39, 36, 12, 53, 0)
s = 56: (0, 87, 26, 11, 42, 9, 8, 32, 31, 12, 35, 0)
s = 57: (0, 41, 35, 5, 50, 17, 13, 33, 32, 17, 39, 0)
s = 58: (0, 44, 35, 6, 38, 19, 10, 23, 32, 20, 47, 0)
s = 59: (0, 52, 17, 6, 52, 11, 9, 43, 44, 9, 27, 0)
s = 60: (0, 34, 19, 8, 53, 13, 7, 32, 22, 17, 57, 0)
s = 61: (0, 51, 27, 9, 33, 23, 8, 40, 41, 9, 27, 0)
s = 62: (0, 55, 19, 7, 36, 8, 8, 38, 27, 18, 71, 0)
s = 63: (0, 59, 19, 7, 33, 9, 13, 34, 26, 7, 53, 0)
s = 64: (0, 42, 33, 6, 39, 13, 12, 31, 36, 10, 51, 0)
s = 65: (0, 70, 21, 15, 33, 12, 7, 28, 25, 16, 29, 0)
s = 66: (0, 40, 43, 8, 25, 16, 9, 42, 27, 8, 48, 0)
s = 67: (0, 64, 21, 7, 27, 12, 9, 36, 26, 11, 74, 0)
s = 68: (0, 62, 25, 14, 41, 20, 12, 52, 31, 8, 39, 0)
s = 69: (0, 80, 36, 11, 23, 16, 14, 42, 29, 13, 48, 0)
s = 70: (0, 47, 23, 14, 29, 19, 10, 36, 29, 14, 36, 0)
s = 71: (0, 87, 37, 9, 41, 16, 14, 24, 21, 13, 26, 0)
s = 72: (0, 58, 25, 5, 41, 10, 14, 33, 36, 10, 75, 0)
s = 73: (0, 45, 22, 5, 31, 14, 10, 47, 21, 14, 68, 0)
s = 74: (0, 89, 33, 6, 45, 15, 13, 40, 23, 15, 56, 0)
s = 75: (0, 83, 31, 9, 31, 11, 12, 35, 48, 10, 34, 0)
s = 76: (0, 52, 28, 8, 24, 14, 9, 33, 31, 11, 62, 0)
s = 77: (0, 61, 29, 5, 24, 15, 6, 47, 47, 12, 28, 0)
s = 78: (0, 36, 27, 10, 22, 18, 13, 28, 41, 17, 59, 0)
s = 79: (0, 58, 32, 8, 27, 20, 12, 31, 20, 9, 49, 0)
s = 80: (0, 62, 24, 9, 34, 19, 6, 33, 39, 9, 44, 0)
s = 81: (0, 40, 24, 9, 39, 10, 7, 26, 46, 7, 28, 0)
s = 82: (0, 60, 14, 5, 21, 17, 10, 22, 49, 10, 35, 0)
s = 83: (0, 93, 36, 12, 45, 20, 11, 39, 37, 11, 43, 0)
s = 84: (0, 43, 22, 7, 43, 9, 11, 27, 39, 19, 42, 0)
s = 85: (0, 57, 19, 6, 47, 14, 8, 24, 26, 10, 34, 0)
s = 86: (0, 63, 27, 7, 31, 24, 10, 22, 17, 11, 42, 0)
s = 87: (0, 73, 16, 10, 40, 23, 12, 22, 29, 16, 49, 0)
s = 88: (0, 65, 19, 7, 44, 18, 8, 46, 26, 12, 77, 0)
s = 89: (0, 44, 29, 8, 56, 16, 14, 25, 30, 10, 45, 0)
s = 90: (0, 36, 31, 7, 30, 15, 10, 31, 26, 9, 27, 0)
s = 91: (0, 65, 23, 8, 35, 26, 13, 39, 18, 11, 34, 0)
s = 92: (0, 73, 22, 8, 42, 14, 9, 23, 19, 10, 41, 0)
s = 93: (0, 65, 31, 6, 61, 24, 8, 46, 22, 9, 38, 0)
s = 94: (0, 61, 24, 7, 31, 16, 10, 21, 28, 18, 36, 0)
s = 95: (0, 43, 29, 9, 23, 22, 9, 57, 47, 11, 64, 0)
s = 96: (0, 33, 24, 10, 36, 16, 8, 40, 32, 11, 28, 0)
s = 97: (0, 88, 24, 8, 29, 21, 11, 37, 35, 7, 41, 0)
s = 98: (0, 84, 33, 7, 40, 10, 13, 29, 34, 9, 47, 0)
s = 99: (0, 71, 21, 5, 45, 11, 6, 30, 27, 15, 35, 0)
s = 100: (0, 91, 15, 7, 29, 13, 10, 22, 30, 17, 53, 0)
s = 101: (0, 50, 26, 9, 41, 9, 10, 23, 37, 7, 34, 0)
s = 102: (0, 55, 24, 9, 40, 12, 7, 42, 26, 11, 44, 0)
s = 103: (0, 69, 16, 9, 39, 10, 9, 29, 56, 7, 35, 0)
s = 104: (0, 52, 38, 9, 39, 20, 8, 24, 25, 14, 41, 0)
s = 105: (0, 78, 33, 9, 46, 11, 6, 33, 32, 12, 62, 0)
s = 106: (0, 43, 27, 7, 34, 10, 9, 26, 26, 12, 27, 0)
s = 107: (0, 34, 20, 7, 25, 17, 9, 35, 44, 10, 51, 0)
s = 108: (0, 40, 22, 7, 47, 13, 9, 37, 25, 15, 68, 0)
s = 109: (0, 57, 21, 14, 39, 12, 14, 19, 24, 11, 32, 0)
s = 110: (0, 30, 17, 7, 26, 17, 11, 34, 18, 10, 37, 0)
s = 111: (0, 40, 18, 12, 31, 23, 15, 34, 30, 15, 25, 0)
s = 112: (0, 63, 20, 8, 35, 14, 9, 21, 17, 10, 42, 0)
s = 113: (0, 68, 25, 5, 35, 10, 12, 22, 38, 8, 71, 0)
s = 114: (0, 46, 19, 13, 47, 18, 13, 28, 26, 11, 61, 0)
s = 115: (0, 67, 16, 11, 36, 12, 6, 35, 40, 10, 29, 0)
s = 116: (0, 66, 26, 6, 38, 19, 6, 34, 36, 11, 70, 0)
s = 117: (0, 52, 16, 8, 27, 9, 6, 22, 48, 16, 80, 0)
s = 118: (0, 73, 29, 8, 26, 28, 10, 23, 42, 15, 34, 0)
s = 119: (0, 55, 22, 6, 30, 23, 17, 36, 31, 13, 41, 0)
s = 120: (0, 65, 20, 7, 21, 20, 13, 35, 28, 12, 31, 0)
s = 121: (0, 42, 17, 6, 48, 15, 9, 24, 32, 15, 27, 0)
s = 122: (0, 37, 22, 7, 28, 14, 13, 44, 20, 9, 61, 0)
s = 123: (0, 84, 22, 6, 33, 15, 9, 30, 40, 12, 41, 0)
s = 124: (0, 39, 23, 10, 43, 12, 9, 26, 24, 15, 39, 0)
s = 125: (0, 48, 27, 11, 30, 21, 8, 17, 34, 17, 40, 0)
s = 126: (0, 38, 18, 9, 51, 12, 11, 37, 38, 10, 29, 0)
s = 127: (0, 48, 13, 9, 35, 15, 6, 42, 38, 18, 29, 0)
s = 128: (0, 46, 20, 11, 27, 12, 9, 36, 41, 15, 29, 0)
s = 129: (0, 42, 19, 9, 43, 20, 8, 50, 25, 9, 68, 0)
s = 130: (0, 99, 35, 10, 45, 14, 14, 36, 25, 10, 35, 0)
s = 131: (0, 61, 17, 6, 38, 10, 9, 20, 24, 14, 45, 0)
s = 132: (0, 48, 25, 11, 43, 17, 12, 22, 24, 13, 38, 0)
s = 133: (0, 74, 21, 8, 39, 17, 10, 28, 31, 9, 38, 0)
s = 134: (0, 39, 27, 10, 36, 18, 13, 43, 19, 8, 36, 0)
s = 135: (0, 43, 29, 9, 49, 10, 8, 26, 30, 9, 30, 0)
s = 136: (0, 46, 19, 10, 42, 17, 6, 52, 24, 16, 54, 0)
s = 137: (0, 32, 29, 9, 22, 20, 7, 23, 20, 12, 31, 0)
s = 138: (0, 50, 17, 7, 44, 25, 8, 25, 22, 12, 34, 0)
s = 139: (0, 49, 21, 12, 36, 16, 10, 36, 54, 12, 36, 0)
s = 140: (0, 44, 25, 6, 43, 11, 13, 30, 31, 11, 57, 0)
s = 141: (0, 57, 20, 8, 38, 20, 13, 44, 28, 11, 55, 0)
s = 142: (0, 103, 20, 10, 26, 11, 8, 37, 43, 17, 32, 0)
s = 143: (0, 59, 19, 12, 48, 16, 9, 23, 21, 15, 56, 0)
s = 144: (0, 68, 22, 7, 39, 20, 9, 44, 24, 17, 67, 0)
s = 145: (0, 65, 17, 9, 25, 10, 12, 22, 23, 19, 45, 0)
s = 146: (0, 40, 43, 14, 40, 14, 11, 18, 23, 14, 56, 0)
s = 147: (0, 67, 19, 11, 56, 14, 11, 55, 37, 13, 58, 0)
s = 148: (0, 75, 33, 7, 27, 12, 8, 35, 22, 13, 27, 0)
s = 149: (0, 48, 25, 9, 38, 16, 8, 45, 47, 17, 34, 0)
s = 150: (0, 53, 27, 6, 49, 15, 15, 31, 26, 8, 34, 0)
s = 151: (0, 50, 34, 8, 36, 11, 12, 24, 27, 11, 34, 0)
s = 152: (0, 39, 18, 8, 35, 16, 6, 35, 24, 12, 51, 0)
s = 153: (0, 67, 18, 10, 29, 20, 10, 42, 28, 12, 41, 0)
s = 154: (0, 61, 23, 10, 28, 11, 10, 35, 22, 9, 38, 0)
s = 155: (0, 60, 20, 11, 38, 16, 9, 37, 40, 9, 65, 0)
s = 156: (0, 85, 23, 7, 44, 17, 11, 45, 45, 9, 55, 0)
s = 157: (0, 92, 23, 5, 24, 16, 5, 28, 24, 13, 77, 0)
s = 158: (0, 57, 18, 8, 33, 21, 7, 29, 20, 24, 47, 0)
s = 159: (0, 55, 15, 8, 45, 13, 11, 35, 36, 18, 41, 0)
s = 160: (0, 50, 24, 7, 32, 14, 11, 34, 31, 14, 35, 0)
s = 161: (0, 43, 18, 7, 43, 12, 8, 36, 45, 12, 49, 0)
s = 162: (0, 46, 15, 7, 38, 21, 11, 22, 41, 19, 46, 0)
s = 163: (0, 73, 34, 8, 34, 14, 7, 35, 18, 8, 45, 0)
s = 164: (0, 65, 32, 6, 37, 15, 12, 28, 17, 8, 35, 0)
s = 165: (0, 53, 22, 6, 49, 14, 14, 24, 31, 8, 41, 0)
s = 166: (0, 45, 36, 5, 23, 16, 6, 27, 26, 20, 49, 0)
s = 167: (0, 52, 27, 6, 54, 19, 9, 31, 32, 7, 40, 0)
s = 168: (0, 46, 24, 11, 43, 17, 6, 23, 34, 7, 41, 0)
s = 169: (0, 55, 16, 9, 65, 17, 7, 60, 43, 7, 35, 0)
s = 170: (0, 33, 17, 7, 51, 14, 10, 20, 41, 8, 31, 0)
s = 171: (0, 58, 29, 13, 24, 11, 8, 35, 28, 19, 40, 0)
s = 172: (0, 62, 18, 5, 30, 11, 11, 24, 31, 13, 28, 0)
s = 173: (0, 45, 31, 7, 53, 13, 9, 38, 33, 8, 60, 0)
s = 174: (0, 82, 37, 8, 28, 17, 8, 28, 39, 14, 28, 0)
s = 175: (0, 43, 41, 5, 48, 11, 6, 29, 29, 16, 63, 0)
s = 176: (0, 93, 37, 9, 31, 12, 13, 25, 22, 20, 64, 0)
s = 177: (0, 66, 26, 9, 35, 19, 10, 36, 51, 9, 48, 0)
s = 178: (0, 74, 34, 9, 59, 16, 10, 28, 21, 12, 35, 0)
s = 179: (0, 49, 21, 12, 25, 21, 14, 25, 32, 10, 39, 0)
s = 180: (0, 40, 15, 13, 39, 21, 11, 39, 23, 8, 54, 0)
s = 181: (0, 57, 14, 7, 34, 16, 5, 50, 42, 10, 54, 0)
s = 182: (0, 41, 25, 10, 34, 22, 7, 30, 39, 22, 53, 0)
s = 183: (0, 64, 42, 6, 20, 22, 10, 27, 40, 17, 57, 0)
s = 184: (0, 57, 26, 9, 41, 20, 10, 32, 25, 11, 41, 0)
s = 185: (0, 47, 23, 6, 21, 14, 9, 29, 35, 14, 39, 0)
s = 186: (0, 59, 36, 9, 60, 24, 11, 22, 25, 17, 35, 0)
s = 187: (0, 78, 17, 13, 20, 12, 11, 27, 26, 8, 29, 0)
s = 188: (0, 92, 24, 8, 36, 15, 7, 34, 27, 17, 31, 0)
s = 189: (0, 54, 23, 9, 32, 11, 8, 26, 31, 9, 29, 0)
s = 190: (0, 87, 26, 8, 39, 19, 9, 27, 21, 12, 35, 0)
s = 191: (0, 91, 29, 5, 40, 15, 9, 35, 31, 9, 47, 0)
s = 192: (0, 50, 14, 9, 37, 14, 9, 22, 36, 10, 46, 0)
s = 193: (0, 57, 31, 6, 58, 11, 9, 31, 44, 14, 48, 0)
s = 194: (0, 42, 18, 8, 25, 13, 8, 32, 20, 20, 57, 0)
s = 195: (0, 51, 25, 6, 52, 23, 10, 21, 22, 14, 36, 0)
s = 196: (0, 48, 20, 12, 27, 14, 7, 26, 45, 15, 32, 0)
s = 197: (0, 85, 26, 13, 41, 17, 8, 23, 19, 17, 29, 0)
s = 198: (0, 41, 16, 7, 36, 9, 15, 32, 34, 15, 46, 0)
s = 199: (0, 48, 15, 11, 26, 27, 7, 37, 32, 9, 41, 0)
s = 200: (0, 63, 24, 8, 41, 11, 10, 21, 35, 10, 50, 0)
************************************************************************
ES/LS-VALUES:
jobnr.   ES(i)    LS(i)
------------------------------------------------------------------------
  0        0        0
  1        0       46
  2        0       53
  3        0       57
  4        5       59
  5       12       67
  6        5       71
  7       15       62
  8       22       70
  9       17       78
 10       17       73
 11       33       82
************************************************************************
BIG-M-VALUES:
M1 = 81, M2 = 312
************************************************************************
